(set-logic QF_LIA)
(declare-fun x0 () Int)
(declare-fun x1 () Int)
(declare-fun x2 () Int)
(declare-fun x3 () Int)
(declare-fun x4 () Int)
(declare-fun x5 () Int)
(declare-fun x6 () Int)
(declare-fun x7 () Int)
(declare-fun x8 () Int)
(declare-fun x9 () Int)
(declare-fun A0 () Bool)
(declare-fun A1 () Bool)
(declare-fun A2 () Bool)
(declare-fun A3 () Bool)
(declare-fun A4 () Bool)
(declare-fun A5 () Bool)
(declare-fun A6 () Bool)
(declare-fun A7 () Bool)
(declare-fun A8 () Bool)
(declare-fun A9 () Bool)
(assert (let ((.def_0 (* 1 x4))) (let ((.def_1 (< .def_0 (- 1)))) (let ((.def_2 (not .def_1))) (let ((.def_3 (= A4 .def_2))) (let ((.def_4 (not .def_3))) (let ((.def_5 (not A6))) (let ((.def_6 (or .def_5 A2))) (let ((.def_7 (not .def_6))) (let ((.def_8 (or .def_7 .def_4))) (let ((.def_9 (* (- 1) x9))) (let ((.def_10 (* (- 1) x6))) (let ((.def_11 (+ .def_10 .def_9))) (let ((.def_12 (< .def_11 (- 1)))) (let ((.def_13 (* (- 1) x8))) (let ((.def_14 (* 1 x1))) (let ((.def_15 (+ .def_14 .def_13))) (let ((.def_16 (< .def_15 1))) (let ((.def_17 (or .def_16 .def_12))) (let ((.def_18 (* 1 x5))) (let ((.def_19 (+ .def_18 .def_13))) (let ((.def_20 (< .def_19 (- 1)))) (let ((.def_21 (not .def_20))) (let ((.def_22 (* 1 x6))) (let ((.def_23 (< .def_22 (- 1)))) (let ((.def_24 (and .def_23 .def_21))) (let ((.def_25 (and .def_24 .def_17))) (let ((.def_26 (or .def_25 .def_8))) (let ((.def_27 (not .def_26))) (let ((.def_28 (* (- 1) x3))) (let ((.def_29 (< .def_28 (- 1)))) (let ((.def_30 (* 1 x7))) (let ((.def_31 (< .def_30 1))) (let ((.def_32 (not .def_31))) (let ((.def_33 (or .def_32 .def_29))) (let ((.def_34 (* (- 1) x4))) (let ((.def_35 (< .def_34 1))) (let ((.def_36 (= .def_5 .def_35))) (let ((.def_37 (not .def_36))) (let ((.def_38 (and .def_37 .def_33))) (let ((.def_39 (not .def_38))) (let ((.def_40 (* 1 x0))) (let ((.def_41 (* 1 x8))) (let ((.def_42 (+ .def_41 .def_40))) (let ((.def_43 (< .def_42 1))) (let ((.def_44 (not .def_43))) (let ((.def_45 (+ .def_18 .def_34))) (let ((.def_46 (< .def_45 (- 1)))) (let ((.def_47 (and .def_46 .def_44))) (let ((.def_48 (* 1 x9))) (let ((.def_49 (+ .def_30 .def_48))) (let ((.def_50 (< .def_49 1))) (let ((.def_51 (not .def_50))) (let ((.def_52 (< .def_13 (- 1)))) (let ((.def_53 (or .def_52 .def_51))) (let ((.def_54 (not .def_53))) (let ((.def_55 (and .def_54 .def_47))) (let ((.def_56 (not .def_55))) (let ((.def_57 (and .def_56 .def_39))) (let ((.def_58 (not .def_57))) (let ((.def_59 (or .def_58 .def_27))) (let ((.def_60 (< .def_40 1))) (let ((.def_61 (not .def_60))) (let ((.def_62 (or .def_61 A4))) (let ((.def_63 (not .def_62))) (let ((.def_64 (* (- 1) x0))) (let ((.def_65 (+ .def_64 .def_34))) (let ((.def_66 (< .def_65 1))) (let ((.def_67 (not .def_66))) (let ((.def_68 (not A5))) (let ((.def_69 (or .def_68 .def_67))) (let ((.def_70 (not .def_69))) (let ((.def_71 (or .def_70 .def_63))) (let ((.def_72 (or A0 A4))) (let ((.def_73 (* (- 1) x1))) (let ((.def_74 (< .def_73 (- 1)))) (let ((.def_75 (+ .def_64 .def_14))) (let ((.def_76 (< .def_75 (- 1)))) (let ((.def_77 (and .def_76 .def_74))) (let ((.def_78 (not .def_77))) (let ((.def_79 (or .def_78 .def_72))) (let ((.def_80 (or .def_79 .def_71))) (let ((.def_81 (* (- 1) x7))) (let ((.def_82 (< .def_81 (- 1)))) (let ((.def_83 (not .def_82))) (let ((.def_84 (* 1 x3))) (let ((.def_85 (+ .def_73 .def_84))) (let ((.def_86 (< .def_85 (- 1)))) (let ((.def_87 (and .def_86 .def_83))) (let ((.def_88 (* (- 1) x5))) (let ((.def_89 (+ .def_88 .def_64))) (let ((.def_90 (< .def_89 (- 1)))) (let ((.def_91 (not .def_90))) (let ((.def_92 (< .def_14 1))) (let ((.def_93 (and .def_92 .def_91))) (let ((.def_94 (or .def_93 .def_87))) (let ((.def_95 (not .def_94))) (let ((.def_96 (not A7))) (let ((.def_97 (* 1 x2))) (let ((.def_98 (+ .def_97 .def_22))) (let ((.def_99 (< .def_98 (- 1)))) (let ((.def_100 (and .def_99 .def_96))) (let ((.def_101 (+ .def_30 .def_0))) (let ((.def_102 (< .def_101 1))) (let ((.def_103 (not .def_102))) (let ((.def_104 (+ .def_73 .def_30))) (let ((.def_105 (< .def_104 (- 1)))) (let ((.def_106 (and .def_105 .def_103))) (let ((.def_107 (not .def_106))) (let ((.def_108 (or .def_107 .def_100))) (let ((.def_109 (or .def_108 .def_95))) (let ((.def_110 (and .def_109 .def_80))) (let ((.def_111 (and .def_110 .def_59))) (let ((.def_112 (not .def_111))) (let ((.def_113 (not A0))) (let ((.def_114 (or A3 .def_113))) (let ((.def_115 (not .def_114))) (let ((.def_116 (or A6 A5))) (let ((.def_117 (and .def_116 .def_115))) (let ((.def_118 (not .def_117))) (let ((.def_119 (* (- 1) x2))) (let ((.def_120 (+ .def_18 .def_119))) (let ((.def_121 (< .def_120 (- 1)))) (let ((.def_122 (not .def_121))) (let ((.def_123 (+ .def_88 .def_9))) (let ((.def_124 (< .def_123 (- 1)))) (let ((.def_125 (and .def_124 .def_122))) (let ((.def_126 (+ .def_14 .def_22))) (let ((.def_127 (< .def_126 (- 1)))) (let ((.def_128 (+ .def_14 .def_84))) (let ((.def_129 (< .def_128 (- 1)))) (let ((.def_130 (not .def_129))) (let ((.def_131 (and .def_130 .def_127))) (let ((.def_132 (and .def_131 .def_125))) (let ((.def_133 (not .def_132))) (let ((.def_134 (and .def_133 .def_118))) (let ((.def_135 (+ .def_84 .def_41))) (let ((.def_136 (< .def_135 (- 1)))) (let ((.def_137 (not .def_136))) (let ((.def_138 (not A3))) (let ((.def_139 (and .def_138 .def_137))) (let ((.def_140 (= A2 .def_82))) (let ((.def_141 (not .def_140))) (let ((.def_142 (or .def_141 .def_139))) (let ((.def_143 (not .def_142))) (let ((.def_144 (< .def_48 1))) (let ((.def_145 (and A3 .def_144))) (let ((.def_146 (< .def_84 1))) (let ((.def_147 (and .def_146 A6))) (let ((.def_148 (not .def_147))) (let ((.def_149 (= .def_148 .def_145))) (let ((.def_150 (or .def_149 .def_143))) (let ((.def_151 (not .def_150))) (let ((.def_152 (and .def_151 .def_134))) (let ((.def_153 (not .def_152))) (let ((.def_154 (not A2))) (let ((.def_155 (and .def_113 .def_154))) (let ((.def_156 (+ .def_88 .def_81))) (let ((.def_157 (< .def_156 (- 1)))) (let ((.def_158 (and .def_157 .def_5))) (let ((.def_159 (or .def_158 .def_155))) (let ((.def_160 (not .def_159))) (let ((.def_161 (and .def_68 .def_68))) (let ((.def_162 (and A3 .def_35))) (let ((.def_163 (or .def_162 .def_161))) (let ((.def_164 (not .def_163))) (let ((.def_165 (and .def_164 .def_160))) (let ((.def_166 (not .def_165))) (let ((.def_167 (= .def_138 .def_74))) (let ((.def_168 (< .def_9 1))) (let ((.def_169 (not .def_168))) (let ((.def_170 (+ .def_119 .def_9))) (let ((.def_171 (< .def_170 (- 1)))) (let ((.def_172 (= .def_171 .def_169))) (let ((.def_173 (or .def_172 .def_167))) (let ((.def_174 (not .def_173))) (let ((.def_175 (< .def_10 (- 1)))) (let ((.def_176 (and .def_175 A0))) (let ((.def_177 (+ .def_48 .def_30))) (let ((.def_178 (< .def_177 (- 1)))) (let ((.def_179 (not .def_178))) (let ((.def_180 (and .def_179 .def_68))) (let ((.def_181 (or .def_180 .def_176))) (let ((.def_182 (or .def_181 .def_174))) (let ((.def_183 (and .def_182 .def_166))) (let ((.def_184 (and .def_183 .def_153))) (let ((.def_185 (or .def_184 .def_112))) (let ((.def_186 (not .def_185))) (let ((.def_187 (+ .def_97 .def_0))) (let ((.def_188 (< .def_187 1))) (let ((.def_189 (< .def_119 1))) (let ((.def_190 (not .def_189))) (let ((.def_191 (and .def_190 .def_188))) (let ((.def_192 (+ .def_30 .def_73))) (let ((.def_193 (< .def_192 (- 1)))) (let ((.def_194 (not .def_193))) (let ((.def_195 (< .def_84 (- 1)))) (let ((.def_196 (and .def_195 .def_194))) (let ((.def_197 (and .def_196 .def_191))) (let ((.def_198 (+ .def_34 .def_64))) (let ((.def_199 (< .def_198 (- 1)))) (let ((.def_200 (and .def_199 A5))) (let ((.def_201 (+ .def_14 .def_9))) (let ((.def_202 (< .def_201 1))) (let ((.def_203 (or .def_202 A8))) (let ((.def_204 (not .def_203))) (let ((.def_205 (or .def_204 .def_200))) (let ((.def_206 (or .def_205 .def_197))) (let ((.def_207 (not .def_202))) (let ((.def_208 (and .def_207 .def_92))) (let ((.def_209 (not A9))) (let ((.def_210 (or .def_209 A4))) (let ((.def_211 (and .def_210 .def_208))) (let ((.def_212 (or .def_5 .def_209))) (let ((.def_213 (not A8))) (let ((.def_214 (or .def_213 A6))) (let ((.def_215 (or .def_214 .def_212))) (let ((.def_216 (not .def_215))) (let ((.def_217 (or .def_216 .def_211))) (let ((.def_218 (= .def_217 .def_206))) (let ((.def_219 (+ .def_22 .def_34))) (let ((.def_220 (< .def_219 (- 1)))) (let ((.def_221 (not .def_220))) (let ((.def_222 (or .def_221 A9))) (let ((.def_223 (not .def_222))) (let ((.def_224 (+ .def_40 .def_30))) (let ((.def_225 (< .def_224 1))) (let ((.def_226 (not .def_225))) (let ((.def_227 (and .def_226 A3))) (let ((.def_228 (and .def_227 .def_223))) (let ((.def_229 (not .def_74))) (let ((.def_230 (or A6 .def_229))) (let ((.def_231 (not .def_230))) (let ((.def_232 (and A0 .def_5))) (let ((.def_233 (or .def_232 .def_231))) (let ((.def_234 (or .def_233 .def_228))) (let ((.def_235 (not .def_234))) (let ((.def_236 (< .def_18 (- 1)))) (let ((.def_237 (+ .def_40 .def_97))) (let ((.def_238 (< .def_237 (- 1)))) (let ((.def_239 (or .def_238 .def_236))) (let ((.def_240 (not .def_239))) (let ((.def_241 (+ .def_81 .def_48))) (let ((.def_242 (< .def_241 1))) (let ((.def_243 (not .def_242))) (let ((.def_244 (not A4))) (let ((.def_245 (or .def_244 .def_243))) (let ((.def_246 (and .def_245 .def_240))) (let ((.def_247 (not .def_246))) (let ((.def_248 (and A2 .def_113))) (let ((.def_249 (not .def_248))) (let ((.def_250 (+ .def_97 .def_84))) (let ((.def_251 (< .def_250 1))) (let ((.def_252 (not .def_251))) (let ((.def_253 (and .def_252 .def_154))) (let ((.def_254 (not .def_253))) (let ((.def_255 (and .def_254 .def_249))) (let ((.def_256 (not .def_255))) (let ((.def_257 (and .def_256 .def_247))) (let ((.def_258 (or .def_257 .def_235))) (let ((.def_259 (not .def_258))) (let ((.def_260 (and .def_259 .def_218))) (let ((.def_261 (not .def_260))) (let ((.def_262 (< .def_88 1))) (let ((.def_263 (and .def_262 .def_144))) (let ((.def_264 (< .def_64 1))) (let ((.def_265 (< .def_13 1))) (let ((.def_266 (or .def_265 .def_264))) (let ((.def_267 (and .def_266 .def_263))) (let ((.def_268 (not .def_267))) (let ((.def_269 (or .def_113 .def_209))) (let ((.def_270 (+ .def_30 .def_14))) (let ((.def_271 (< .def_270 (- 1)))) (let ((.def_272 (and .def_271 .def_5))) (let ((.def_273 (or .def_272 .def_269))) (let ((.def_274 (or .def_273 .def_268))) (let ((.def_275 (not .def_195))) (let ((.def_276 (and .def_190 .def_275))) (let ((.def_277 (not .def_276))) (let ((.def_278 (< .def_41 1))) (let ((.def_279 (or .def_278 A3))) (let ((.def_280 (not .def_279))) (let ((.def_281 (and .def_280 .def_277))) (let ((.def_282 (not .def_281))) (let ((.def_283 (+ .def_10 .def_30))) (let ((.def_284 (< .def_283 1))) (let ((.def_285 (not .def_284))) (let ((.def_286 (or .def_2 .def_285))) (let ((.def_287 (not .def_286))) (let ((.def_288 (or .def_278 .def_5))) (let ((.def_289 (or .def_288 .def_287))) (let ((.def_290 (and .def_289 .def_282))) (let ((.def_291 (or .def_290 .def_274))) (let ((.def_292 (or A5 .def_96))) (let ((.def_293 (+ .def_14 .def_18))) (let ((.def_294 (< .def_293 (- 1)))) (let ((.def_295 (= .def_265 .def_294))) (let ((.def_296 (not .def_295))) (let ((.def_297 (or .def_296 .def_292))) (let ((.def_298 (not .def_297))) (let ((.def_299 (+ .def_30 .def_13))) (let ((.def_300 (< .def_299 1))) (let ((.def_301 (or A9 .def_300))) (let ((.def_302 (not .def_301))) (let ((.def_303 (= .def_113 .def_74))) (let ((.def_304 (= .def_303 .def_302))) (let ((.def_305 (and .def_304 .def_298))) (let ((.def_306 (not A1))) (let ((.def_307 (< .def_0 1))) (let ((.def_308 (not .def_307))) (let ((.def_309 (and .def_308 .def_306))) (let ((.def_310 (< .def_187 (- 1)))) (let ((.def_311 (+ .def_0 .def_97))) (let ((.def_312 (< .def_311 1))) (let ((.def_313 (and .def_312 .def_310))) (let ((.def_314 (or .def_313 .def_309))) (let ((.def_315 (not .def_314))) (let ((.def_316 (< .def_10 1))) (let ((.def_317 (or .def_316 .def_96))) (let ((.def_318 (+ .def_73 .def_28))) (let ((.def_319 (< .def_318 (- 1)))) (let ((.def_320 (and A8 .def_319))) (let ((.def_321 (not .def_320))) (let ((.def_322 (or .def_321 .def_317))) (let ((.def_323 (or .def_322 .def_315))) (let ((.def_324 (not .def_323))) (let ((.def_325 (or .def_324 .def_305))) (let ((.def_326 (not .def_325))) (let ((.def_327 (and .def_326 .def_291))) (let ((.def_328 (or .def_327 .def_261))) (let ((.def_329 (= .def_328 .def_186))) (let ((.def_330 (not .def_329))) (let ((.def_331 (+ .def_34 .def_119))) (let ((.def_332 (< .def_331 (- 1)))) (let ((.def_333 (or .def_332 A6))) (let ((.def_334 (and .def_168 .def_306))) (let ((.def_335 (not .def_334))) (let ((.def_336 (or .def_335 .def_333))) (let ((.def_337 (+ .def_13 .def_64))) (let ((.def_338 (< .def_337 1))) (let ((.def_339 (not .def_338))) (let ((.def_340 (and A5 .def_339))) (let ((.def_341 (< .def_293 1))) (let ((.def_342 (= .def_341 .def_29))) (let ((.def_343 (and .def_342 .def_340))) (let ((.def_344 (and .def_343 .def_336))) (let ((.def_345 (not .def_344))) (let ((.def_346 (and .def_213 .def_138))) (let ((.def_347 (not .def_346))) (let ((.def_348 (+ .def_34 .def_41))) (let ((.def_349 (< .def_348 (- 1)))) (let ((.def_350 (= .def_349 .def_96))) (let ((.def_351 (or .def_350 .def_347))) (let ((.def_352 (not .def_351))) (let ((.def_353 (or .def_244 A3))) (let ((.def_354 (not .def_353))) (let ((.def_355 (< .def_34 (- 1)))) (let ((.def_356 (not .def_355))) (let ((.def_357 (or .def_356 .def_275))) (let ((.def_358 (not .def_357))) (let ((.def_359 (and .def_358 .def_354))) (let ((.def_360 (or .def_359 .def_352))) (let ((.def_361 (not .def_360))) (let ((.def_362 (and .def_361 .def_345))) (let ((.def_363 (not .def_362))) (let ((.def_364 (and A1 .def_68))) (let ((.def_365 (+ .def_28 .def_34))) (let ((.def_366 (< .def_365 (- 1)))) (let ((.def_367 (not .def_366))) (let ((.def_368 (not .def_264))) (let ((.def_369 (= .def_368 .def_367))) (let ((.def_370 (not .def_369))) (let ((.def_371 (and .def_370 .def_364))) (let ((.def_372 (< .def_30 (- 1)))) (let ((.def_373 (not .def_372))) (let ((.def_374 (and .def_373 .def_373))) (let ((.def_375 (not .def_374))) (let ((.def_376 (+ .def_97 .def_34))) (let ((.def_377 (< .def_376 (- 1)))) (let ((.def_378 (not .def_377))) (let ((.def_379 (and .def_378 A3))) (let ((.def_380 (= .def_379 .def_375))) (let ((.def_381 (or .def_380 .def_371))) (let ((.def_382 (+ .def_88 .def_13))) (let ((.def_383 (< .def_382 1))) (let ((.def_384 (not .def_383))) (let ((.def_385 (= .def_244 .def_384))) (let ((.def_386 (not .def_262))) (let ((.def_387 (or A7 .def_386))) (let ((.def_388 (or .def_387 .def_385))) (let ((.def_389 (not .def_388))) (let ((.def_390 (= .def_244 .def_113))) (let ((.def_391 (< .def_40 (- 1)))) (let ((.def_392 (or .def_169 .def_391))) (let ((.def_393 (not .def_392))) (let ((.def_394 (and .def_393 .def_390))) (let ((.def_395 (not .def_394))) (let ((.def_396 (and .def_395 .def_389))) (let ((.def_397 (not .def_396))) (let ((.def_398 (and .def_397 .def_381))) (let ((.def_399 (and .def_398 .def_363))) (let ((.def_400 (or .def_138 .def_244))) (let ((.def_401 (not .def_400))) (let ((.def_402 (or A4 A0))) (let ((.def_403 (or .def_402 .def_401))) (let ((.def_404 (not .def_403))) (let ((.def_405 (+ .def_81 .def_13))) (let ((.def_406 (< .def_405 1))) (let ((.def_407 (not .def_406))) (let ((.def_408 (or .def_407 .def_275))) (let ((.def_409 (not .def_408))) (let ((.def_410 (+ .def_41 .def_81))) (let ((.def_411 (< .def_410 1))) (let ((.def_412 (not .def_411))) (let ((.def_413 (< .def_97 1))) (let ((.def_414 (or .def_413 .def_412))) (let ((.def_415 (and .def_414 .def_409))) (let ((.def_416 (not .def_415))) (let ((.def_417 (and .def_416 .def_404))) (let ((.def_418 (not .def_417))) (let ((.def_419 (or .def_262 A3))) (let ((.def_420 (or .def_213 A0))) (let ((.def_421 (not .def_420))) (let ((.def_422 (and .def_421 .def_419))) (let ((.def_423 (not .def_422))) (let ((.def_424 (+ .def_34 .def_30))) (let ((.def_425 (< .def_424 1))) (let ((.def_426 (or .def_378 .def_425))) (let ((.def_427 (not .def_426))) (let ((.def_428 (< .def_48 (- 1)))) (let ((.def_429 (= A0 .def_428))) (let ((.def_430 (and .def_429 .def_427))) (let ((.def_431 (and .def_430 .def_423))) (let ((.def_432 (or .def_431 .def_418))) (let ((.def_433 (not .def_52))) (let ((.def_434 (or .def_209 .def_433))) (let ((.def_435 (+ .def_97 .def_28))) (let ((.def_436 (< .def_435 (- 1)))) (let ((.def_437 (+ .def_28 .def_88))) (let ((.def_438 (< .def_437 1))) (let ((.def_439 (not .def_438))) (let ((.def_440 (or .def_439 .def_436))) (let ((.def_441 (and .def_440 .def_434))) (let ((.def_442 (+ .def_0 .def_41))) (let ((.def_443 (< .def_442 (- 1)))) (let ((.def_444 (not .def_443))) (let ((.def_445 (or .def_444 .def_5))) (let ((.def_446 (not .def_445))) (let ((.def_447 (< .def_14 (- 1)))) (let ((.def_448 (not .def_447))) (let ((.def_449 (or A7 .def_448))) (let ((.def_450 (and .def_449 .def_446))) (let ((.def_451 (or .def_450 .def_441))) (let ((.def_452 (not .def_451))) (let ((.def_453 (not .def_146))) (let ((.def_454 (or .def_453 .def_213))) (let ((.def_455 (or .def_68 .def_68))) (let ((.def_456 (not .def_455))) (let ((.def_457 (or .def_456 .def_454))) (let ((.def_458 (not .def_457))) (let ((.def_459 (+ .def_84 .def_88))) (let ((.def_460 (< .def_459 1))) (let ((.def_461 (= .def_154 .def_460))) (let ((.def_462 (not .def_461))) (let ((.def_463 (and A4 A1))) (let ((.def_464 (or .def_463 .def_462))) (let ((.def_465 (not .def_464))) (let ((.def_466 (or .def_465 .def_458))) (let ((.def_467 (and .def_466 .def_452))) (let ((.def_468 (not .def_467))) (let ((.def_469 (and .def_468 .def_432))) (let ((.def_470 (not .def_469))) (let ((.def_471 (= .def_470 .def_399))) (let ((.def_472 (not .def_471))) (let ((.def_473 (+ .def_88 .def_0))) (let ((.def_474 (< .def_473 (- 1)))) (let ((.def_475 (or A0 .def_474))) (let ((.def_476 (not .def_475))) (let ((.def_477 (< .def_64 (- 1)))) (let ((.def_478 (not .def_477))) (let ((.def_479 (and .def_478 .def_195))) (let ((.def_480 (and .def_479 .def_476))) (let ((.def_481 (+ .def_84 .def_48))) (let ((.def_482 (< .def_481 1))) (let ((.def_483 (not .def_482))) (let ((.def_484 (or .def_138 .def_483))) (let ((.def_485 (not .def_484))) (let ((.def_486 (= A6 .def_413))) (let ((.def_487 (not .def_486))) (let ((.def_488 (or .def_487 .def_485))) (let ((.def_489 (not .def_488))) (let ((.def_490 (or .def_489 .def_480))) (let ((.def_491 (not .def_490))) (let ((.def_492 (and .def_5 .def_448))) (let ((.def_493 (and A9 A0))) (let ((.def_494 (and .def_493 .def_492))) (let ((.def_495 (and .def_213 A8))) (let ((.def_496 (not .def_495))) (let ((.def_497 (+ .def_97 .def_13))) (let ((.def_498 (< .def_497 (- 1)))) (let ((.def_499 (and .def_52 .def_498))) (let ((.def_500 (not .def_499))) (let ((.def_501 (or .def_500 .def_496))) (let ((.def_502 (or .def_501 .def_494))) (let ((.def_503 (not .def_502))) (let ((.def_504 (or .def_503 .def_491))) (let ((.def_505 (not .def_504))) (let ((.def_506 (or A0 .def_68))) (let ((.def_507 (not .def_506))) (let ((.def_508 (+ .def_88 .def_119))) (let ((.def_509 (< .def_508 (- 1)))) (let ((.def_510 (not .def_509))) (let ((.def_511 (or A8 .def_510))) (let ((.def_512 (not .def_511))) (let ((.def_513 (and .def_512 .def_507))) (let ((.def_514 (not .def_513))) (let ((.def_515 (and A9 A3))) (let ((.def_516 (< .def_9 (- 1)))) (let ((.def_517 (or .def_516 .def_5))) (let ((.def_518 (and .def_517 .def_515))) (let ((.def_519 (not .def_518))) (let ((.def_520 (and .def_519 .def_514))) (let ((.def_521 (< .def_97 (- 1)))) (let ((.def_522 (or .def_92 .def_521))) (let ((.def_523 (not .def_522))) (let ((.def_524 (not .def_521))) (let ((.def_525 (not .def_316))) (let ((.def_526 (or .def_525 .def_524))) (let ((.def_527 (and .def_526 .def_523))) (let ((.def_528 (not .def_527))) (let ((.def_529 (and .def_96 .def_244))) (let ((.def_530 (not .def_529))) (let ((.def_531 (and A1 .def_306))) (let ((.def_532 (not .def_531))) (let ((.def_533 (and .def_532 .def_530))) (let ((.def_534 (not .def_533))) (let ((.def_535 (and .def_534 .def_528))) (let ((.def_536 (not .def_535))) (let ((.def_537 (and .def_536 .def_520))) (let ((.def_538 (and .def_537 .def_505))) (let ((.def_539 (and .def_154 .def_209))) (let ((.def_540 (or .def_168 .def_68))) (let ((.def_541 (and .def_540 .def_539))) (let ((.def_542 (+ .def_119 .def_84))) (let ((.def_543 (< .def_542 (- 1)))) (let ((.def_544 (and .def_543 A5))) (let ((.def_545 (< .def_241 (- 1)))) (let ((.def_546 (not .def_545))) (let ((.def_547 (and .def_546 .def_278))) (let ((.def_548 (not .def_547))) (let ((.def_549 (and .def_548 .def_544))) (let ((.def_550 (not .def_549))) (let ((.def_551 (and .def_550 .def_541))) (let ((.def_552 (not .def_551))) (let ((.def_553 (+ .def_34 .def_9))) (let ((.def_554 (< .def_553 1))) (let ((.def_555 (and A8 .def_554))) (let ((.def_556 (+ .def_88 .def_10))) (let ((.def_557 (< .def_556 1))) (let ((.def_558 (or .def_96 .def_557))) (let ((.def_559 (not .def_558))) (let ((.def_560 (and .def_559 .def_555))) (let ((.def_561 (= .def_138 .def_68))) (let ((.def_562 (not .def_561))) (let ((.def_563 (or .def_195 .def_138))) (let ((.def_564 (not .def_563))) (let ((.def_565 (and .def_564 .def_562))) (let ((.def_566 (not .def_565))) (let ((.def_567 (and .def_566 .def_560))) (let ((.def_568 (not .def_567))) (let ((.def_569 (and .def_568 .def_552))) (let ((.def_570 (not .def_569))) (let ((.def_571 (+ .def_64 .def_73))) (let ((.def_572 (< .def_571 (- 1)))) (let ((.def_573 (not .def_572))) (let ((.def_574 (< .def_81 1))) (let ((.def_575 (and .def_574 .def_573))) (let ((.def_576 (or A9 .def_68))) (let ((.def_577 (not .def_576))) (let ((.def_578 (and .def_577 .def_575))) (let ((.def_579 (= .def_447 .def_154))) (let ((.def_580 (< .def_318 1))) (let ((.def_581 (not .def_580))) (let ((.def_582 (and .def_581 A4))) (let ((.def_583 (not .def_582))) (let ((.def_584 (or .def_583 .def_579))) (let ((.def_585 (or .def_584 .def_578))) (let ((.def_586 (not .def_585))) (let ((.def_587 (+ .def_48 .def_40))) (let ((.def_588 (< .def_587 (- 1)))) (let ((.def_589 (= A2 .def_588))) (let ((.def_590 (+ .def_64 .def_119))) (let ((.def_591 (< .def_590 1))) (let ((.def_592 (or .def_591 .def_391))) (let ((.def_593 (and .def_592 .def_589))) (let ((.def_594 (< .def_18 1))) (let ((.def_595 (and .def_213 .def_594))) (let ((.def_596 (not .def_595))) (let ((.def_597 (not .def_413))) (let ((.def_598 (and .def_68 .def_597))) (let ((.def_599 (not .def_598))) (let ((.def_600 (or .def_599 .def_596))) (let ((.def_601 (or .def_600 .def_593))) (let ((.def_602 (or .def_601 .def_586))) (let ((.def_603 (and .def_602 .def_570))) (let ((.def_604 (and .def_603 .def_538))) (let ((.def_605 (not .def_604))) (let ((.def_606 (= .def_605 .def_472))) (let ((.def_607 (or .def_606 .def_330))) (let ((.def_608 (<= x9 1))) (let ((.def_609 (<= 0 x9))) (let ((.def_610 (<= x8 1))) (let ((.def_611 (<= 0 x8))) (let ((.def_612 (<= x7 1))) (let ((.def_613 (<= 0 x7))) (let ((.def_614 (<= x6 1))) (let ((.def_615 (<= 0 x6))) (let ((.def_616 (<= x5 1))) (let ((.def_617 (<= 0 x5))) (let ((.def_618 (<= x4 1))) (let ((.def_619 (<= 0 x4))) (let ((.def_620 (<= x3 1))) (let ((.def_621 (<= 0 x3))) (let ((.def_622 (<= x2 1))) (let ((.def_623 (<= 0 x2))) (let ((.def_624 (<= x1 1))) (let ((.def_625 (<= 0 x1))) (let ((.def_626 (<= x0 1))) (let ((.def_627 (<= 0 x0))) (let ((.def_628 (and .def_627 .def_626 .def_625 .def_624 .def_623 .def_622 .def_621 .def_620 .def_619 .def_618 .def_617 .def_616 .def_615 .def_614 .def_613 .def_612 .def_611 .def_610 .def_609 .def_608 .def_607))) .def_628))))))))))))))))))))))))))))))))))))))))))))))))))))))))))))))))))))))))))))))))))))))))))))))))))))))))))))))))))))))))))))))))))))))))))))))))))))))))))))))))))))))))))))))))))))))))))))))))))))))))))))))))))))))))))))))))))))))))))))))))))))))))))))))))))))))))))))))))))))))))))))))))))))))))))))))))))))))))))))))))))))))))))))))))))))))))))))))))))))))))))))))))))))))))))))))))))))))))))))))))))))))))))))))))))))))))))))))))))))))))))))))))))))))))))))))))))))))))))))))))))))))))))))))))))))))))))))))))))))))))))))))))))))))))))))))))))))))))))))))))))))))))))))))))))))))))))))))))))))))))))))))))))))))))))))))))))))))
(check-sat)
